p wcnf 180 90 91 
1 -101 176 0 
1 -125 -15 0 
1 80 13 0 
1 -8 134 0 
1 -71 -50 0 
1 -27 -164 0 
1 30 -148 0 
1 39 -180 0 
1 -168 169 0 
1 29 -8 0 
1 78 -176 0 
1 132 -162 0 
1 33 64 0 
1 -136 -52 0 
1 76 -4 0 
1 16 72 0 
1 110 86 0 
1 163 -15 0 
1 -39 119 0 
1 73 37 0 
1 -74 -112 0 
1 87 -65 0 
1 -141 175 0 
1 150 -92 0 
1 50 -82 0 
1 122 -167 0 
1 163 -22 0 
1 127 -161 0 
1 28 -111 0 
1 -159 163 0 
1 -66 87 0 
1 -116 -32 0 
1 -149 -41 0 
1 77 -118 0 
1 156 -10 0 
1 -41 -121 0 
1 -11 -49 0 
1 -67 -159 0 
1 88 -124 0 
1 94 165 0 
1 -91 -3 0 
1 86 -53 0 
1 103 -150 0 
1 -143 9 0 
1 -118 125 0 
1 136 167 0 
1 7 154 0 
1 171 -43 0 
1 -129 -93 0 
1 94 6 0 
1 102 -57 0 
1 150 -102 0 
1 3 -63 0 
1 132 7 0 
1 132 48 0 
1 -85 38 0 
1 -84 125 0 
1 -66 -180 0 
1 -168 -135 0 
1 -66 40 0 
1 169 64 0 
1 148 -21 0 
1 45 -22 0 
1 -63 -149 0 
1 85 103 0 
1 -41 84 0 
1 14 -85 0 
1 -178 114 0 
1 57 -166 0 
1 -50 -82 0 
1 -113 135 0 
1 -30 -123 0 
1 164 31 0 
1 132 168 0 
1 40 -13 0 
1 160 -19 0 
1 -34 -80 0 
1 117 48 0 
1 14 82 0 
1 -138 -41 0 
1 96 -47 0 
1 -180 6 0 
1 -126 161 0 
1 12 156 0 
1 105 72 0 
1 -15 5 0 
1 167 -131 0 
1 178 -46 0 
1 -13 -134 0 
1 -28 -158 0 
